flowshop-is-p6-pulp.sol
Problem:    
Rows:       48
Columns:    48 (25 integer, 25 binary)
Non-zeros:  268
Status:     INTEGER OPTIMAL
Objective:  OBJ = 35 (MINimum)

   No.   Row name        Activity     Lower bound   Upper bound
------ ------------    ------------- ------------- -------------
     1 _C1                         1             1             = 
     2 _C10                        1             1             = 
     3 _C11                        0             0             = 
     4 _C12                        0             0             = 
     5 _C13                        0             0             = 
     6 _C14                        0             0             = 
     7 _C15                        0             0             = 
     8 _C16                        0             0             = 
     9 _C17                        0             0             = 
    10 _C18                        0             0             = 
    11 _C19                        0             0               
    12 _C2                         1             1             = 
    13 _C20                        0             0               
    14 _C21                        2             0               
    15 _C22                        0             0               
    16 _C23                        6             0               
    17 _C24                        0             0               
    18 _C25                       12             0               
    19 _C26                        0             0               
    20 _C27                       21             0               
    21 _C28                        3             0               
    22 _C29                        0             0               
    23 _C3                         1             1             = 
    24 _C30                        2             0               
    25 _C31                        4             0               
    26 _C32                        0             0               
    27 _C33                        0             0               
    28 _C34                        0             0               
    29 _C35                        4             0               
    30 _C36                        0             0               
    31 _C37                        0             0               
    32 _C38                        0             0               
    33 _C39                        0             0               
    34 _C4                         1             1             = 
    35 _C40                       10             0               
    36 _C41                        3             0               
    37 _C42                        2             0               
    38 _C43                        0             0               
    39 _C44                        0             0               
    40 _C45                        0             0               
    41 _C46                        0             0               
    42 _C47                        2             0               
    43 _C48                        0             0               
    44 _C5                         1             1             = 
    45 _C6                         1             1             = 
    46 _C7                         1             1             = 
    47 _C8                         1             1             = 
    48 _C9                         1             1             = 

   No. Column name       Activity     Lower bound   Upper bound
------ ------------    ------------- ------------- -------------
     1 s_(5,_3)                   35             0               
     2 x_(1,_1)     *              0             0             1 
     3 x_(2,_1)     *              1             0             1 
     4 x_(3,_1)     *              0             0             1 
     5 x_(4,_1)     *              0             0             1 
     6 x_(5,_1)     *              0             0             1 
     7 x_(5,_2)     *              0             0             1 
     8 x_(5,_3)     *              0             0             1 
     9 x_(5,_4)     *              0             0             1 
    10 x_(5,_5)     *              1             0             1 
    11 s_(0,_1)                    0             0               
    12 s_(0,_2)                    0             0               
    13 s_(0,_3)                    0             0               
    14 s_(1,_0)                    0             0               
    15 s_(2,_0)                    0             0               
    16 s_(3,_0)                    0             0               
    17 s_(4,_0)                    0             0               
    18 s_(5,_0)                    0             0               
    19 s_(1,_1)                    2             0               
    20 x_(1,_2)     *              0             0             1 
    21 x_(2,_2)     *              0             0             1 
    22 x_(3,_2)     *              0             0             1 
    23 x_(4,_2)     *              1             0             1 
    24 s_(2,_1)                    6             0               
    25 s_(3,_1)                   12             0               
    26 x_(1,_3)     *              1             0             1 
    27 x_(2,_3)     *              0             0             1 
    28 x_(3,_3)     *              0             0             1 
    29 x_(4,_3)     *              0             0             1 
    30 s_(4,_1)                   18             0               
    31 x_(1,_4)     *              0             0             1 
    32 x_(2,_4)     *              0             0             1 
    33 x_(3,_4)     *              1             0             1 
    34 x_(4,_4)     *              0             0             1 
    35 s_(5,_1)                   26             0               
    36 x_(1,_5)     *              0             0             1 
    37 x_(2,_5)     *              0             0             1 
    38 x_(3,_5)     *              0             0             1 
    39 x_(4,_5)     *              0             0             1 
    40 s_(1,_2)                   10             0               
    41 s_(2,_2)                   12             0               
    42 s_(3,_2)                   22             0               
    43 s_(4,_2)                   26             0               
    44 s_(5,_2)                   29             0               
    45 s_(1,_3)                   13             0               
    46 s_(2,_3)                   22             0               
    47 s_(3,_3)                   26             0               
    48 s_(4,_3)                   31             0               

Integer feasibility conditions:

KKT.PE: max.abs.err = 0.00e+00 on row 0
        max.rel.err = 0.00e+00 on row 0
        High quality

KKT.PB: max.abs.err = 0.00e+00 on row 0
        max.rel.err = 0.00e+00 on row 0
        High quality

End of output
